20 64 
1 5 1
1 8 1
1 17 1
2 5 1
2 6 1
2 7 1
2 13 1
2 15 1
3 5 1
3 6 1
3 9 1
3 10 1
3 12 1
3 16 1
3 17 1
3 18 1
3 19 1
4 5 1
4 6 1
4 7 1
4 8 1
4 9 1
4 13 1
4 14 1
4 16 1
4 20 1
5 6 1
5 7 1
5 8 1
5 9 1
5 13 1
5 15 1
5 18 1
5 20 1
6 7 1
6 11 1
6 18 1
7 8 1
7 9 1
7 10 1
7 14 1
8 10 1
8 11 1
8 16 1
8 17 1
8 20 1
9 10 1
9 11 1
9 12 1
9 14 1
10 11 1
10 12 1
10 18 1
11 12 1
11 19 1
12 13 1
12 15 1
12 20 1
13 14 1
13 15 1
14 17 1
15 16 1
15 19 1
17 19 1
